104165
20,9,21,54,71,66,36,26,76,67,14,70,62,80,46,45,29,10,1,64,73,13,37,18,65,31,24,48,19,5,22,44,82,75,68,59,53,4,50,63,83,8,28,79,6,35,30,2,38,16,27,33,11,40,32,74,58,77,17,56,7,51,72,81,60,47,49,34,57,43,3,12,23,55,42,25,69,15,61,78,41,39,52